45
2 49 10 
2 61 19 
2 58 76 
2 94 79 
2 7 70 
3 5 106 102 
2 22 115 
2 46 55 
2 82 52 
3 68 36 108 
3 9 92 31 
2 103 97 
2 88 37 
2 25 91 
3 117 67 116 
2 43 40 
3 118 15 51 
3 16 64 8 
3 66 120 96 
3 4 34 47 
3 100 114 26 
3 13 112 104 
3 6 87 72 
2 1 90 
3 27 33 30 
3 75 39 45 
3 54 18 93 
3 84 105 42 
3 99 24 57 
3 48 101 69 
3 41 3 17 
3 107 73 86 
3 98 44 109 
3 83 85 111 
3 113 89 2 
3 81 38 56 
3 14 65 35 
3 78 80 60 
3 71 23 119 
3 32 74 63 
3 21 29 110 
3 53 50 28 
3 12 20 77 
3 95 59 62 
1 11 
